[on. 05. april 09:03:25 +0200 2023]  ./input/alternate_g_np_100/100-2-4.gcc
Set parameter Username
Academic license - for non-commercial use only - expires 2024-03-28
Set parameter TimeLimit to value 1800
Set parameter PreCrush to value 1
Set parameter LazyConstraints to value 1
Gurobi Optimizer version 10.0.1 build v10.0.1rc0 (linux64)

CPU model: AMD Ryzen 9 5950X 16-Core Processor, instruction set [SSE2|AVX|AVX2]
Thread count: 16 physical cores, 32 logical processors, using up to 32 threads

Optimize a model with 101 rows, 200 columns and 400 nonzeros
Model fingerprint: 0x8cf4ee0f
Variable types: 0 continuous, 200 integer (200 binary)
Coefficient statistics:
  Matrix range     [1e+00, 1e+00]
  Objective range  [1e+00, 1e+02]
  Bounds range     [1e+00, 1e+00]
  RHS range        [1e+00, 1e+00]
Presolve time: 0.00s
Presolved: 101 rows, 200 columns, 400 nonzeros
Variable types: 0 continuous, 200 integer (200 binary)

Root relaxation: objective 4.435000e+03, 1 iterations, 0.00 seconds (0.00 work units)

    Nodes    |    Current Node    |     Objective Bounds      |     Work
 Expl Unexpl |  Obj  Depth IntInf | Incumbent    BestBd   Gap | It/Node Time

     0     0 4435.00000    0    -          - 4435.00000      -     -    0s
     0     0 4435.00000    0    -          - 4435.00000      -     -    0s
     0     0 4435.00000    0    -          - 4435.00000      -     -    0s
     0     0 4435.00000    0    -          - 4435.00000      -     -    0s
     0     0 4435.00000    0    -          - 4435.00000      -     -    0s
     0     0 4435.00000    0   12          - 4435.00000      -     -    0s
     0     0 4435.00000    0   20          - 4435.00000      -     -    0s
     0     0 4435.00000    0    -          - 4435.00000      -     -    0s
     0     0 4435.00000    0    -          - 4435.00000      -     -    0s
     0     0 4428.75000    0   18          - 4428.75000      -     -    0s
     0     0 4428.75000    0   16          - 4428.75000      -     -    0s
     0     2 4428.75000    0   18          - 4428.75000      -     -    0s
 18085 11470 4244.85714   44   14          - 4316.00000      -  15.5    5s
 33116 22744 4206.68182   26   84          - 4316.00000      -  16.2   10s
 44700 31082 4001.92421   22   62          - 4316.00000      -  17.0   15s
 50331 34677 4141.81974   28  127          - 4229.93936      -  18.1   20s
 52980 36005 infeasible   28               - 4208.00000      -  20.3   25s
H60279 34219                    3762.0000000 4129.33333  9.76%  21.0   30s
 63450 33794 3855.31932   36  119 3762.00000 4011.99368  6.65%  21.9   35s
*65292 28704              35    3856.0000000 4004.00000  3.84%  22.3   38s
 66560 27493 3867.27778   46   23 3856.00000 3957.00000  2.62%  22.4   40s
 70294 24598     cutoff   37      3856.00000 3875.69620  0.51%  22.5   45s

Cutting planes:
  User: 814
  Lazy constraints: 1407

Explored 71858 nodes (1604709 simplex iterations) in 47.14 seconds (43.52 work units)
Thread count was 32 (of 32 available processors)

Solution count 2: 3856 3762 

Optimal solution found (tolerance 1.00e-04)
Best objective 3.856000000000e+03, best bound 3.856000000000e+03, gap 0.0000%

User-callback calls 149806, time in user-callback 21.51 sec
Minimal separator inequalities added: 130662
Indegree inequalities added: 118508
Passed solution check
[on. 05. april 09:04:13 +0200 2023]  done

